
        $ From http://www.csplib.org/Problems/prob009/data/helmut.pdf
        $ Problem number 19
        $ Sequence length : 23
        language ESSENCE' 1.0
        letting sizemaster be 228
        letting sizes be sequence(2,7,9,10,15,16,17,18,22,23,25,28,36,39,42,56,57,68,69,72,73,87,99)
        